(set-info :smt-lib-version 2.6)
(set-logic QF_LIA)
(set-info :source |
Older mathsat benchmarks.  Contact Mathsat group at http://mathsat.itc.it/ for
more information.

This benchmark was automatically translated into SMT-LIB format from
CVC format using CVC Lite
|)
(set-info :category "industrial")
(set-info :status sat)
(declare-fun AT0_PROC3_CS () Bool)
(declare-fun AT1_PROC5_X () Int)
(declare-fun AT0_PROC7_SW_A_B_TAU () Bool)
(declare-fun AT0_PROC6_SW_B_C_TAU () Bool)
(declare-fun AT1_PROC5_CS () Bool)
(declare-fun AT0_PROC1_X () Int)
(declare-fun AT0_PROC6_C () Bool)
(declare-fun AT0_PROC6_B () Bool)
(declare-fun AT0_PROC7_SW_CS_A_TAU () Bool)
(declare-fun AT0_PROC6_A () Bool)
(declare-fun AT0_ID0 () Bool)
(declare-fun AT1_PROC2_C () Bool)
(declare-fun AT0_ID1 () Bool)
(declare-fun AT1_PROC2_B () Bool)
(declare-fun AT0_ID2 () Bool)
(declare-fun AT0_PROC6_CS () Bool)
(declare-fun AT1_PROC2_A () Bool)
(declare-fun AT0_ID3 () Bool)
(declare-fun AT0_PROC3_SW_CS_A_TAU () Bool)
(declare-fun AT0_ID4 () Bool)
(declare-fun AT0_ID5 () Bool)
(declare-fun AT1_PROC8_X () Int)
(declare-fun AT1_PROC2_CS () Bool)
(declare-fun AT0_ID6 () Bool)
(declare-fun AT0_ID7 () Bool)
(declare-fun AT0_ID8 () Bool)
(declare-fun AT0_PROC4_X () Int)
(declare-fun AT0_PROC3_TAU () Bool)
(declare-fun AT0_PROC7_SW_B_C_TAU () Bool)
(declare-fun AT0_PROC6_SW_A_B_TAU () Bool)
(declare-fun AT1_PROC5_C () Bool)
(declare-fun AT0_PROC2_SW_C_B_TAU () Bool)
(declare-fun AT1_PROC5_B () Bool)
(declare-fun AT0_PROC7_TAU () Bool)
(declare-fun AT1_PROC5_A () Bool)
(declare-fun AT0_PROC4_SW_C_B_TAU () Bool)
(declare-fun AT0_PROC8_SW_A_B_TAU () Bool)
(declare-fun AT0_PROC1_C () Bool)
(declare-fun AT0_PROC1_B () Bool)
(declare-fun AT0_PROC1_A () Bool)
(declare-fun AT0_PROC7_X () Int)
(declare-fun AT0_PROC6_WAIT () Bool)
(declare-fun AT1_PROC3_X () Int)
(declare-fun AT1_PROC8_C () Bool)
(declare-fun AT1_PROC8_B () Bool)
(declare-fun AT1_PROC8_A () Bool)
(declare-fun AT0_PROC3_WAIT () Bool)
(declare-fun AT0_PROC2_CS () Bool)
(declare-fun AT0_PROC4_C () Bool)
(declare-fun AT0_PROC4_B () Bool)
(declare-fun AT1_ID0 () Bool)
(declare-fun AT1_PROC6_CS () Bool)
(declare-fun AT0_PROC4_A () Bool)
(declare-fun AT1_ID1 () Bool)
(declare-fun AT1_ID2 () Bool)
(declare-fun AT1_ID3 () Bool)
(declare-fun AT0_PROC8_SW_B_C_TAU () Bool)
(declare-fun AT1_ID4 () Bool)
(declare-fun AT1_ID5 () Bool)
(declare-fun AT1_ID6 () Bool)
(declare-fun AT0_PROC1_SW_CS_A_TAU () Bool)
(declare-fun AT1_PROC6_X () Int)
(declare-fun AT1_ID7 () Bool)
(declare-fun AT1_ID8 () Bool)
(declare-fun AT0_PROC5_SW_C_B_TAU () Bool)
(declare-fun AT0_PROC5_CS () Bool)
(declare-fun AT0_PROC6_SW_C_B_TAU () Bool)
(declare-fun AT0_PROC5_SW_CS_A_TAU () Bool)
(declare-fun AT0_PROC4_TAU () Bool)
(declare-fun AT0_PROC2_X () Int)
(declare-fun AT0_PROC7_C () Bool)
(declare-fun AT1_PROC3_CS () Bool)
(declare-fun AT0_PROC7_B () Bool)
(declare-fun AT0_PROC4_SW_A_B_TAU () Bool)
(declare-fun AT0_PROC7_A () Bool)
(declare-fun AT1_PROC3_C () Bool)
(declare-fun AT0_PROC8_TAU () Bool)
(declare-fun AT1_PROC3_B () Bool)
(declare-fun AT1_PROC3_A () Bool)
(declare-fun AT0_PROC8_CS () Bool)
(declare-fun AT0_PROC5_X () Int)
(declare-fun AT1_PROC1_X () Int)
(declare-fun AT1_PROC6_C () Bool)
(declare-fun AT1_PROC6_B () Bool)
(declare-fun AT0_PROC6_SW_C_CS_TAU () Bool)
(declare-fun AT1_Z () Int)
(declare-fun AT1_PROC6_A () Bool)
(declare-fun AT0_PROC4_SW_B_C_TAU () Bool)
(declare-fun AT0_PROC2_C () Bool)
(declare-fun AT0_PROC7_WAIT () Bool)
(declare-fun AT0_PROC2_SW_C_CS_TAU () Bool)
(declare-fun AT0_PROC2_B () Bool)
(declare-fun AT0_PROC2_A () Bool)
(declare-fun AT0_PROC3_SW_B_C_TAU () Bool)
(declare-fun AT0_PROC1_SW_C_B_TAU () Bool)
(declare-fun AT0_PROC1_CS () Bool)
(declare-fun AT0_PROC8_X () Int)
(declare-fun AT0_PROC5_SW_A_B_TAU () Bool)
(declare-fun AT0_PROC4_WAIT () Bool)
(declare-fun AT1_PROC7_CS () Bool)
(declare-fun AT0_PROC1_TAU () Bool)
(declare-fun AT0_PROC1_SW_C_CS_TAU () Bool)
(declare-fun AT1_PROC4_X () Int)
(declare-fun AT0_PROC4_SW_CS_A_TAU () Bool)
(declare-fun AT0_PROC1_WAIT () Bool)
(declare-fun AT0_PROC5_TAU () Bool)
(declare-fun AT0_PROC5_SW_C_CS_TAU () Bool)
(declare-fun AT0_PROC8_SW_CS_A_TAU () Bool)
(declare-fun AT0_PROC5_C () Bool)
(declare-fun AT0_PROC5_B () Bool)
(declare-fun AT0_PROC5_A () Bool)
(declare-fun AT0_PROC4_CS () Bool)
(declare-fun AT1_PROC1_C () Bool)
(declare-fun AT1_PROC1_B () Bool)
(declare-fun AT1_PROC4_CS () Bool)
(declare-fun AT1_PROC1_A () Bool)
(declare-fun AT1_PROC7_X () Int)
(declare-fun AT0_PROC3_SW_A_B_TAU () Bool)
(declare-fun AT0_DELTA () Bool)
(declare-fun AT0_PROC5_SW_B_C_TAU () Bool)
(declare-fun AT0_PROC7_SW_C_B_TAU () Bool)
(declare-fun AT0_PROC3_X () Int)
(declare-fun AT0_PROC8_C () Bool)
(declare-fun AT0_PROC7_CS () Bool)
(declare-fun AT0_PROC8_B () Bool)
(declare-fun AT0_PROC7_SW_C_CS_TAU () Bool)
(declare-fun AT0_PROC8_A () Bool)
(declare-fun AT0_PROC2_SW_B_C_TAU () Bool)
(declare-fun AT1_PROC4_C () Bool)
(declare-fun AT1_PROC1_CS () Bool)
(declare-fun AT1_PROC4_B () Bool)
(declare-fun AT0_PROC6_SW_CS_A_TAU () Bool)
(declare-fun AT1_PROC4_A () Bool)
(declare-fun AT0_PROC3_SW_C_CS_TAU () Bool)
(declare-fun AT0_PROC1_SW_A_B_TAU () Bool)
(declare-fun AT0_PROC2_SW_CS_A_TAU () Bool)
(declare-fun AT0_PROC6_X () Int)
(declare-fun AT0_PROC2_TAU () Bool)
(declare-fun AT0_PROC8_WAIT () Bool)
(declare-fun AT1_PROC2_X () Int)
(declare-fun AT1_PROC7_C () Bool)
(declare-fun AT0_PROC4_SW_C_CS_TAU () Bool)
(declare-fun AT1_PROC7_B () Bool)
(declare-fun AT0_Z () Int)
(declare-fun AT1_PROC7_A () Bool)
(declare-fun AT0_PROC6_TAU () Bool)
(declare-fun AT1_PROC8_CS () Bool)
(declare-fun AT0_PROC8_SW_C_CS_TAU () Bool)
(declare-fun AT0_PROC5_WAIT () Bool)
(declare-fun AT0_PROC2_SW_A_B_TAU () Bool)
(declare-fun AT0_PROC3_C () Bool)
(declare-fun AT0_PROC3_B () Bool)
(declare-fun AT0_PROC3_A () Bool)
(declare-fun AT0_PROC8_SW_C_B_TAU () Bool)
(declare-fun AT0_PROC3_SW_C_B_TAU () Bool)
(declare-fun AT0_PROC2_WAIT () Bool)
(declare-fun AT0_PROC1_SW_B_C_TAU () Bool)
(assert (let ((?v_0 (not AT0_PROC1_A)) (?v_1 (not AT0_PROC1_B)) (?v_2 (not AT0_PROC1_C)) (?v_3 (not AT0_PROC1_CS)) (?v_4 (not AT1_PROC1_A)) (?v_5 (not AT1_PROC1_B)) (?v_6 (not AT1_PROC1_C)) (?v_7 (not AT1_PROC1_CS)) (?v_8 (not AT0_PROC2_A)) (?v_9 (not AT0_PROC2_B)) (?v_10 (not AT0_PROC2_C)) (?v_11 (not AT0_PROC2_CS)) (?v_12 (not AT1_PROC2_A)) (?v_13 (not AT1_PROC2_B)) (?v_14 (not AT1_PROC2_C)) (?v_15 (not AT1_PROC2_CS)) (?v_16 (not AT0_PROC3_A)) (?v_17 (not AT0_PROC3_B)) (?v_18 (not AT0_PROC3_C)) (?v_19 (not AT0_PROC3_CS)) (?v_20 (not AT1_PROC3_A)) (?v_21 (not AT1_PROC3_B)) (?v_22 (not AT1_PROC3_C)) (?v_23 (not AT1_PROC3_CS)) (?v_24 (not AT0_PROC4_A)) (?v_25 (not AT0_PROC4_B)) (?v_26 (not AT0_PROC4_C)) (?v_27 (not AT0_PROC4_CS)) (?v_28 (not AT1_PROC4_A)) (?v_29 (not AT1_PROC4_B)) (?v_30 (not AT1_PROC4_C)) (?v_31 (not AT1_PROC4_CS)) (?v_32 (not AT0_PROC5_A)) (?v_33 (not AT0_PROC5_B)) (?v_34 (not AT0_PROC5_C)) (?v_35 (not AT0_PROC5_CS)) (?v_36 (not AT1_PROC5_A)) (?v_37 (not AT1_PROC5_B)) (?v_38 (not AT1_PROC5_C)) (?v_39 (not AT1_PROC5_CS)) (?v_40 (not AT0_PROC6_A)) (?v_41 (not AT0_PROC6_B)) (?v_42 (not AT0_PROC6_C)) (?v_43 (not AT0_PROC6_CS)) (?v_44 (not AT1_PROC6_A)) (?v_45 (not AT1_PROC6_B)) (?v_46 (not AT1_PROC6_C)) (?v_47 (not AT1_PROC6_CS)) (?v_48 (not AT0_PROC7_A)) (?v_49 (not AT0_PROC7_B)) (?v_50 (not AT0_PROC7_C)) (?v_51 (not AT0_PROC7_CS)) (?v_52 (not AT1_PROC7_A)) (?v_53 (not AT1_PROC7_B)) (?v_54 (not AT1_PROC7_C)) (?v_55 (not AT1_PROC7_CS)) (?v_56 (not AT0_PROC8_A)) (?v_57 (not AT0_PROC8_B)) (?v_58 (not AT0_PROC8_C)) (?v_59 (not AT0_PROC8_CS)) (?v_60 (not AT1_PROC8_A)) (?v_61 (not AT1_PROC8_B)) (?v_62 (not AT1_PROC8_C)) (?v_63 (not AT1_PROC8_CS)) (?v_64 (= AT0_PROC1_X AT0_Z)) (?v_65 (> AT0_PROC1_X AT0_Z))) (let ((?v_191 (not ?v_64)) (?v_66 (= AT1_PROC1_X AT1_Z)) (?v_67 (> AT1_PROC1_X AT1_Z))) (let ((?v_190 (not ?v_66)) (?v_68 (= AT0_PROC2_X AT0_Z)) (?v_69 (> AT0_PROC2_X AT0_Z))) (let ((?v_196 (not ?v_68)) (?v_70 (= AT1_PROC2_X AT1_Z)) (?v_71 (> AT1_PROC2_X AT1_Z))) (let ((?v_195 (not ?v_70)) (?v_72 (= AT0_PROC3_X AT0_Z)) (?v_73 (> AT0_PROC3_X AT0_Z))) (let ((?v_200 (not ?v_72)) (?v_74 (= AT1_PROC3_X AT1_Z)) (?v_75 (> AT1_PROC3_X AT1_Z))) (let ((?v_199 (not ?v_74)) (?v_76 (= AT0_PROC4_X AT0_Z)) (?v_77 (> AT0_PROC4_X AT0_Z))) (let ((?v_204 (not ?v_76)) (?v_78 (= AT1_PROC4_X AT1_Z)) (?v_79 (> AT1_PROC4_X AT1_Z))) (let ((?v_203 (not ?v_78)) (?v_80 (= AT0_PROC5_X AT0_Z)) (?v_81 (> AT0_PROC5_X AT0_Z))) (let ((?v_208 (not ?v_80)) (?v_82 (= AT1_PROC5_X AT1_Z)) (?v_83 (> AT1_PROC5_X AT1_Z))) (let ((?v_207 (not ?v_82)) (?v_84 (= AT0_PROC6_X AT0_Z)) (?v_85 (> AT0_PROC6_X AT0_Z))) (let ((?v_212 (not ?v_84)) (?v_86 (= AT1_PROC6_X AT1_Z)) (?v_87 (> AT1_PROC6_X AT1_Z))) (let ((?v_211 (not ?v_86)) (?v_88 (= AT0_PROC7_X AT0_Z)) (?v_89 (> AT0_PROC7_X AT0_Z))) (let ((?v_216 (not ?v_88)) (?v_90 (= AT1_PROC7_X AT1_Z)) (?v_91 (> AT1_PROC7_X AT1_Z))) (let ((?v_215 (not ?v_90)) (?v_92 (= AT0_PROC8_X AT0_Z)) (?v_93 (> AT0_PROC8_X AT0_Z))) (let ((?v_220 (not ?v_92)) (?v_94 (= AT1_PROC8_X AT1_Z)) (?v_95 (> AT1_PROC8_X AT1_Z))) (let ((?v_219 (not ?v_94)) (?v_101 (- AT0_PROC1_X AT0_Z))) (let ((?v_98 (<= ?v_101 10)) (?v_109 (- AT0_PROC2_X AT0_Z))) (let ((?v_106 (<= ?v_109 10)) (?v_116 (- AT0_PROC3_X AT0_Z))) (let ((?v_113 (<= ?v_116 10)) (?v_123 (- AT0_PROC4_X AT0_Z))) (let ((?v_120 (<= ?v_123 10)) (?v_130 (- AT0_PROC5_X AT0_Z))) (let ((?v_127 (<= ?v_130 10)) (?v_137 (- AT0_PROC6_X AT0_Z))) (let ((?v_134 (<= ?v_137 10)) (?v_144 (- AT0_PROC7_X AT0_Z))) (let ((?v_141 (<= ?v_144 10)) (?v_151 (- AT0_PROC8_X AT0_Z))) (let ((?v_148 (<= ?v_151 10)) (?v_96 (not AT0_PROC1_SW_A_B_TAU)) (?v_97 (not AT0_PROC1_SW_B_C_TAU)) (?v_99 (not AT0_PROC1_SW_C_B_TAU)) (?v_100 (not AT0_PROC1_SW_C_CS_TAU)) (?v_154 (= AT1_PROC1_X AT0_PROC1_X)) (?v_102 (not AT0_PROC1_SW_CS_A_TAU)) (?v_103 (= AT1_Z AT0_Z)) (?v_104 (not AT0_PROC2_SW_A_B_TAU)) (?v_105 (not AT0_PROC2_SW_B_C_TAU)) (?v_107 (not AT0_PROC2_SW_C_B_TAU)) (?v_108 (not AT0_PROC2_SW_C_CS_TAU)) (?v_156 (= AT1_PROC2_X AT0_PROC2_X)) (?v_110 (not AT0_PROC2_SW_CS_A_TAU)) (?v_111 (not AT0_PROC3_SW_A_B_TAU)) (?v_112 (not AT0_PROC3_SW_B_C_TAU)) (?v_114 (not AT0_PROC3_SW_C_B_TAU)) (?v_115 (not AT0_PROC3_SW_C_CS_TAU)) (?v_158 (= AT1_PROC3_X AT0_PROC3_X)) (?v_117 (not AT0_PROC3_SW_CS_A_TAU)) (?v_118 (not AT0_PROC4_SW_A_B_TAU)) (?v_119 (not AT0_PROC4_SW_B_C_TAU)) (?v_121 (not AT0_PROC4_SW_C_B_TAU)) (?v_122 (not AT0_PROC4_SW_C_CS_TAU)) (?v_160 (= AT1_PROC4_X AT0_PROC4_X)) (?v_124 (not AT0_PROC4_SW_CS_A_TAU)) (?v_125 (not AT0_PROC5_SW_A_B_TAU)) (?v_126 (not AT0_PROC5_SW_B_C_TAU)) (?v_128 (not AT0_PROC5_SW_C_B_TAU)) (?v_129 (not AT0_PROC5_SW_C_CS_TAU)) (?v_162 (= AT1_PROC5_X AT0_PROC5_X)) (?v_131 (not AT0_PROC5_SW_CS_A_TAU)) (?v_132 (not AT0_PROC6_SW_A_B_TAU)) (?v_133 (not AT0_PROC6_SW_B_C_TAU)) (?v_135 (not AT0_PROC6_SW_C_B_TAU)) (?v_136 (not AT0_PROC6_SW_C_CS_TAU)) (?v_164 (= AT1_PROC6_X AT0_PROC6_X)) (?v_138 (not AT0_PROC6_SW_CS_A_TAU)) (?v_139 (not AT0_PROC7_SW_A_B_TAU)) (?v_140 (not AT0_PROC7_SW_B_C_TAU)) (?v_142 (not AT0_PROC7_SW_C_B_TAU)) (?v_143 (not AT0_PROC7_SW_C_CS_TAU)) (?v_166 (= AT1_PROC7_X AT0_PROC7_X)) (?v_145 (not AT0_PROC7_SW_CS_A_TAU)) (?v_146 (not AT0_PROC8_SW_A_B_TAU)) (?v_147 (not AT0_PROC8_SW_B_C_TAU)) (?v_149 (not AT0_PROC8_SW_C_B_TAU)) (?v_150 (not AT0_PROC8_SW_C_CS_TAU)) (?v_168 (= AT1_PROC8_X AT0_PROC8_X)) (?v_152 (not AT0_PROC8_SW_CS_A_TAU)) (?v_153 (not AT0_PROC1_WAIT)) (?v_170 (not AT0_PROC1_TAU)) (?v_155 (not AT0_PROC2_WAIT)) (?v_171 (not AT0_PROC2_TAU)) (?v_157 (not AT0_PROC3_WAIT)) (?v_173 (not AT0_PROC3_TAU)) (?v_159 (not AT0_PROC4_WAIT)) (?v_174 (not AT0_PROC4_TAU)) (?v_161 (not AT0_PROC5_WAIT)) (?v_175 (not AT0_PROC5_TAU)) (?v_163 (not AT0_PROC6_WAIT)) (?v_176 (not AT0_PROC6_TAU)) (?v_165 (not AT0_PROC7_WAIT)) (?v_177 (not AT0_PROC7_TAU)) (?v_167 (not AT0_PROC8_WAIT)) (?v_178 (not AT0_PROC8_TAU)) (?v_169 (not AT0_DELTA)) (?v_187 (< AT1_Z AT0_Z))) (let ((?v_172 (or ?v_169 ?v_187)) (?v_179 (< AT1_PROC1_X AT0_PROC1_X)) (?v_188 (not ?v_154)) (?v_180 (< AT1_PROC2_X AT0_PROC2_X)) (?v_194 (not ?v_156)) (?v_181 (< AT1_PROC3_X AT0_PROC3_X)) (?v_198 (not ?v_158)) (?v_182 (< AT1_PROC4_X AT0_PROC4_X)) (?v_202 (not ?v_160)) (?v_183 (< AT1_PROC5_X AT0_PROC5_X)) (?v_206 (not ?v_162)) (?v_184 (< AT1_PROC6_X AT0_PROC6_X)) (?v_210 (not ?v_164)) (?v_185 (< AT1_PROC7_X AT0_PROC7_X)) (?v_214 (not ?v_166)) (?v_186 (< AT1_PROC8_X AT0_PROC8_X)) (?v_218 (not ?v_168)) (?v_189 (not ?v_103)) (?v_193 (not ?v_187))) (let ((?v_192 (or ?v_191 ?v_188)) (?v_197 (or ?v_196 ?v_194)) (?v_201 (or ?v_200 ?v_198)) (?v_205 (or ?v_204 ?v_202)) (?v_209 (or ?v_208 ?v_206)) (?v_213 (or ?v_212 ?v_210)) (?v_217 (or ?v_216 ?v_214)) (?v_221 (or ?v_220 ?v_218)) (?v_222 (not AT0_ID0)) (?v_223 (not AT0_ID1)) (?v_224 (not AT0_ID2)) (?v_225 (not AT0_ID3)) (?v_226 (not AT0_ID4)) (?v_227 (not AT0_ID5)) (?v_228 (not AT0_ID6)) (?v_229 (not AT0_ID7)) (?v_230 (not AT0_ID8)) (?v_231 (not AT1_ID0)) (?v_232 (not AT1_ID1)) (?v_233 (not AT1_ID2)) (?v_234 (not AT1_ID3)) (?v_235 (not AT1_ID4)) (?v_236 (not AT1_ID5)) (?v_237 (not AT1_ID6)) (?v_238 (not AT1_ID7)) (?v_239 (not AT1_ID8)) (?v_240 (- AT1_PROC1_X AT1_Z)) (?v_241 (- AT1_PROC2_X AT1_Z)) (?v_242 (- AT1_PROC3_X AT1_Z)) (?v_243 (- AT1_PROC4_X AT1_Z)) (?v_244 (- AT1_PROC5_X AT1_Z)) (?v_245 (- AT1_PROC6_X AT1_Z)) (?v_246 (- AT1_PROC7_X AT1_Z)) (?v_247 (- AT1_PROC8_X AT1_Z))) (and (and (and (and (and (and (and (and (and (and (and (and (and (and (and (and (and (and (and (and (and (and (and (and (and (and (and (and (and (and (and (and (and (and (and (and (and (and (and (and (and (and (and (and (and (and (and (and (and (and (and (and (and (and (and (and (and (and (and (and (and (and (and (and (and (and (and (and (and (and (and (and (and (and (and (and (and (and (and (and (and (and (and (and (and (and (and (and (and (and (and (and (and (and (and (and (and (and (and (and (and (and (and (and (and (and (and (and (and (and (and (and (and (and (and (and (and (and (and (and (and (and (and (and (and (and (and (and (and (and (and (and (and (and (and (and (and (and (and (and (and (and (and (and (and (and (and (and (and (and (and (and (and (and (and (and (and (and (and (and (and (and (and (and (and (and (and (and (and (and (and (and (and (and (and (and (and (and (and (and (and (and (and (and (and (and (and (and (and (and (and (and (and (and (and (and (and (and (and (and (and (and (and (and (and (and (and (and (and (and (and (and (and (and (and (and (and (and (and (and (and (and (and (and (and (and (and (and (and (and (and (and (and (and (and (and (and (and (and (and (and (and (and (and (and (and (and (and (and (and (and (and (and (and (and (and (and (and (and (and (and (and (and (and (and (and (and (and (and (and (and (and (and (and (and (and (and (and (and (and (and (and (and (and (and (and (and (and (and (and (and (and (and (and (and (and (and (and (and (and (and (and (and (and (and (and (and (and (and (and (and (and (and (and (and (and (and (and (and (and (and (and (and (and (and (and (and (and (and (and (and (and (and (and (and (and (and (and (and (and (and (and (and (and (and (and (and (and (and (and (and (and (and (and (and (and (and (and (and (and (and (and (and (and (and (and (and (and (and (and (and (and (and (and (and (and (and (and (and (and (and (and (and (and (and (and (and (and (and (and (and (and (and (and (and (and (and (and (and (and (and (and (and (and (and (and (and (and (and (and (and (and (and (and (and (and (and (and (and (and (and (and (and (and (and (and (and (and (and (and (and (and (and (and (and (and (and (and (and (and (and (and (and (and (and (and (and (and (and (and (and (and (and (and (and (and (and (and (and (and (and (and (and (and (and (and (and (and (and (and (and (and (and (and (and (and (and (and (and (and (and (and (and (and (and (and (and (and (and (and (and (and (and (and (and (and (and (and (and (and (and (and (and (and (and (and (and (and (and (and (and (and (and (and (and (and (and (and (and (and (and (and (and (and (and (and (and (and (and (and (and (and (and (and (and (and (and (and (and (and (and (and (and (and (and (and (and (and (and (and (and (and (and (and (and (and (and (and (and (and (and (and (and (and (and (and (and (and (and (and (and (and (and (and (and (and (and (and (and (and (and (and (and (and (and (and (and (and (and (and (and (and (and (and (and (and (and (and (and (and (and (and (and (and (and (and (and (and (and (and (and (and (and (and (and (and (and (and (and (and (and (and (and (and (and (and (and (and (and (and (and (and (and (and (and (and (and (and (and (and (and (and (and (and (and (and (and (and (and (and (and (and (and (and (and (and (and (and (and (and (and (and (and (and (and (and (and (and (and (and (and (and (and (and (and (and (and (and (and (and (and (and (and (and (and (and (and (and (and (and (and (and (and (and (and (and (and (and (and (and (and (and (and (and (and (and (and (and (and (and (and (and (and (and (and (and (and (and (and (and (and (and (and (and (and (and (and (and (and (and (and (and (and (and (and (and (and (and (and (and (and (and (and (and (and (and (and (and (and (and (and (and (and (and (and (and (and (and (and (and (and (and (and (and (and (and (and (and (and (and (and (and (and (and (and (and (and (and (and (and (and (and (and (and (and (and (and (and (and (and (and (and (and (and (and (and (and (and (and (and (and (and (and (and (and (and (and (and (and (and (and (and (and (and (and (and (and (and (and (and (and (and (and (and (and (and (and (and (and (and (and (and (and (and (and (and (and (and (and (and (and (and (and (and (and (and (and (and (and (and (and (and (and (and (or ?v_0 ?v_1) (or ?v_0 ?v_2)) (or ?v_0 ?v_3)) (or ?v_1 ?v_2)) (or ?v_1 ?v_3)) (or ?v_2 ?v_3)) (or ?v_4 ?v_5)) (or ?v_4 ?v_6)) (or ?v_4 ?v_7)) (or ?v_5 ?v_6)) (or ?v_5 ?v_7)) (or ?v_6 ?v_7)) (or ?v_8 ?v_9)) (or ?v_8 ?v_10)) (or ?v_8 ?v_11)) (or ?v_9 ?v_10)) (or ?v_9 ?v_11)) (or ?v_10 ?v_11)) (or ?v_12 ?v_13)) (or ?v_12 ?v_14)) (or ?v_12 ?v_15)) (or ?v_13 ?v_14)) (or ?v_13 ?v_15)) (or ?v_14 ?v_15)) (or ?v_16 ?v_17)) (or ?v_16 ?v_18)) (or ?v_16 ?v_19)) (or ?v_17 ?v_18)) (or ?v_17 ?v_19)) (or ?v_18 ?v_19)) (or ?v_20 ?v_21)) (or ?v_20 ?v_22)) (or ?v_20 ?v_23)) (or ?v_21 ?v_22)) (or ?v_21 ?v_23)) (or ?v_22 ?v_23)) (or ?v_24 ?v_25)) (or ?v_24 ?v_26)) (or ?v_24 ?v_27)) (or ?v_25 ?v_26)) (or ?v_25 ?v_27)) (or ?v_26 ?v_27)) (or ?v_28 ?v_29)) (or ?v_28 ?v_30)) (or ?v_28 ?v_31)) (or ?v_29 ?v_30)) (or ?v_29 ?v_31)) (or ?v_30 ?v_31)) (or ?v_32 ?v_33)) (or ?v_32 ?v_34)) (or ?v_32 ?v_35)) (or ?v_33 ?v_34)) (or ?v_33 ?v_35)) (or ?v_34 ?v_35)) (or ?v_36 ?v_37)) (or ?v_36 ?v_38)) (or ?v_36 ?v_39)) (or ?v_37 ?v_38)) (or ?v_37 ?v_39)) (or ?v_38 ?v_39)) (or ?v_40 ?v_41)) (or ?v_40 ?v_42)) (or ?v_40 ?v_43)) (or ?v_41 ?v_42)) (or ?v_41 ?v_43)) (or ?v_42 ?v_43)) (or ?v_44 ?v_45)) (or ?v_44 ?v_46)) (or ?v_44 ?v_47)) (or ?v_45 ?v_46)) (or ?v_45 ?v_47)) (or ?v_46 ?v_47)) (or ?v_48 ?v_49)) (or ?v_48 ?v_50)) (or ?v_48 ?v_51)) (or ?v_49 ?v_50)) (or ?v_49 ?v_51)) (or ?v_50 ?v_51)) (or ?v_52 ?v_53)) (or ?v_52 ?v_54)) (or ?v_52 ?v_55)) (or ?v_53 ?v_54)) (or ?v_53 ?v_55)) (or ?v_54 ?v_55)) (or ?v_56 ?v_57)) (or ?v_56 ?v_58)) (or ?v_56 ?v_59)) (or ?v_57 ?v_58)) (or ?v_57 ?v_59)) (or ?v_58 ?v_59)) (or ?v_60 ?v_61)) (or ?v_60 ?v_62)) (or ?v_60 ?v_63)) (or ?v_61 ?v_62)) (or ?v_61 ?v_63)) (or ?v_62 ?v_63)) (or ?v_64 ?v_65)) (or ?v_191 (not ?v_65))) (or ?v_66 ?v_67)) (or ?v_190 (not ?v_67))) (or ?v_68 ?v_69)) (or ?v_196 (not ?v_69))) (or ?v_70 ?v_71)) (or ?v_195 (not ?v_71))) (or ?v_72 ?v_73)) (or ?v_200 (not ?v_73))) (or ?v_74 ?v_75)) (or ?v_199 (not ?v_75))) (or ?v_76 ?v_77)) (or ?v_204 (not ?v_77))) (or ?v_78 ?v_79)) (or ?v_203 (not ?v_79))) (or ?v_80 ?v_81)) (or ?v_208 (not ?v_81))) (or ?v_82 ?v_83)) (or ?v_207 (not ?v_83))) (or ?v_84 ?v_85)) (or ?v_212 (not ?v_85))) (or ?v_86 ?v_87)) (or ?v_211 (not ?v_87))) (or ?v_88 ?v_89)) (or ?v_216 (not ?v_89))) (or ?v_90 ?v_91)) (or ?v_215 (not ?v_91))) (or ?v_92 ?v_93)) (or ?v_220 (not ?v_93))) (or ?v_94 ?v_95)) (or ?v_219 (not ?v_95))) (or ?v_1 ?v_98)) (or ?v_5 (<= ?v_240 10))) (or ?v_9 ?v_106)) (or ?v_13 (<= ?v_241 10))) (or ?v_17 ?v_113)) (or ?v_21 (<= ?v_242 10))) (or ?v_25 ?v_120)) (or ?v_29 (<= ?v_243 10))) (or ?v_33 ?v_127)) (or ?v_37 (<= ?v_244 10))) (or ?v_41 ?v_134)) (or ?v_45 (<= ?v_245 10))) (or ?v_49 ?v_141)) (or ?v_53 (<= ?v_246 10))) (or ?v_57 ?v_148)) (or ?v_61 (<= ?v_247 10))) (or (or (or (or (or (or AT0_PROC1_WAIT AT0_DELTA) AT0_PROC1_SW_A_B_TAU) AT0_PROC1_SW_B_C_TAU) AT0_PROC1_SW_C_B_TAU) AT0_PROC1_SW_C_CS_TAU) AT0_PROC1_SW_CS_A_TAU)) (or (or (or (or (or (or AT0_PROC2_WAIT AT0_DELTA) AT0_PROC2_SW_A_B_TAU) AT0_PROC2_SW_B_C_TAU) AT0_PROC2_SW_C_B_TAU) AT0_PROC2_SW_C_CS_TAU) AT0_PROC2_SW_CS_A_TAU)) (or (or (or (or (or (or AT0_PROC3_WAIT AT0_DELTA) AT0_PROC3_SW_A_B_TAU) AT0_PROC3_SW_B_C_TAU) AT0_PROC3_SW_C_B_TAU) AT0_PROC3_SW_C_CS_TAU) AT0_PROC3_SW_CS_A_TAU)) (or (or (or (or (or (or AT0_PROC4_WAIT AT0_DELTA) AT0_PROC4_SW_A_B_TAU) AT0_PROC4_SW_B_C_TAU) AT0_PROC4_SW_C_B_TAU) AT0_PROC4_SW_C_CS_TAU) AT0_PROC4_SW_CS_A_TAU)) (or (or (or (or (or (or AT0_PROC5_WAIT AT0_DELTA) AT0_PROC5_SW_A_B_TAU) AT0_PROC5_SW_B_C_TAU) AT0_PROC5_SW_C_B_TAU) AT0_PROC5_SW_C_CS_TAU) AT0_PROC5_SW_CS_A_TAU)) (or (or (or (or (or (or AT0_PROC6_WAIT AT0_DELTA) AT0_PROC6_SW_A_B_TAU) AT0_PROC6_SW_B_C_TAU) AT0_PROC6_SW_C_B_TAU) AT0_PROC6_SW_C_CS_TAU) AT0_PROC6_SW_CS_A_TAU)) (or (or (or (or (or (or AT0_PROC7_WAIT AT0_DELTA) AT0_PROC7_SW_A_B_TAU) AT0_PROC7_SW_B_C_TAU) AT0_PROC7_SW_C_B_TAU) AT0_PROC7_SW_C_CS_TAU) AT0_PROC7_SW_CS_A_TAU)) (or (or (or (or (or (or AT0_PROC8_WAIT AT0_DELTA) AT0_PROC8_SW_A_B_TAU) AT0_PROC8_SW_B_C_TAU) AT0_PROC8_SW_C_B_TAU) AT0_PROC8_SW_C_CS_TAU) AT0_PROC8_SW_CS_A_TAU)) (or ?v_96 AT0_PROC1_A)) (or ?v_96 AT0_PROC1_TAU)) (or ?v_96 AT1_PROC1_B)) (or ?v_96 ?v_66)) (or ?v_97 AT0_PROC1_B)) (or ?v_97 AT0_PROC1_TAU)) (or ?v_97 AT1_PROC1_C)) (or ?v_97 ?v_98)) (or ?v_97 ?v_66)) (or ?v_99 AT0_PROC1_C)) (or ?v_99 AT0_PROC1_TAU)) (or ?v_99 AT1_PROC1_B)) (or ?v_99 ?v_66)) (or ?v_100 AT0_PROC1_C)) (or ?v_100 AT0_PROC1_TAU)) (or ?v_100 AT1_PROC1_CS)) (or ?v_100 (> ?v_101 10))) (or ?v_100 ?v_154)) (or ?v_102 AT0_PROC1_CS)) (or ?v_102 AT0_PROC1_TAU)) (or ?v_102 AT1_PROC1_A)) (or ?v_102 ?v_66)) (or ?v_96 ?v_103)) (or ?v_97 ?v_103)) (or ?v_99 ?v_103)) (or ?v_100 ?v_103)) (or ?v_102 ?v_103)) (or ?v_104 AT0_PROC2_A)) (or ?v_104 AT0_PROC2_TAU)) (or ?v_104 AT1_PROC2_B)) (or ?v_104 ?v_70)) (or ?v_105 AT0_PROC2_B)) (or ?v_105 AT0_PROC2_TAU)) (or ?v_105 AT1_PROC2_C)) (or ?v_105 ?v_106)) (or ?v_105 ?v_70)) (or ?v_107 AT0_PROC2_C)) (or ?v_107 AT0_PROC2_TAU)) (or ?v_107 AT1_PROC2_B)) (or ?v_107 ?v_70)) (or ?v_108 AT0_PROC2_C)) (or ?v_108 AT0_PROC2_TAU)) (or ?v_108 AT1_PROC2_CS)) (or ?v_108 (> ?v_109 10))) (or ?v_108 ?v_156)) (or ?v_110 AT0_PROC2_CS)) (or ?v_110 AT0_PROC2_TAU)) (or ?v_110 AT1_PROC2_A)) (or ?v_110 ?v_70)) (or ?v_104 ?v_103)) (or ?v_105 ?v_103)) (or ?v_107 ?v_103)) (or ?v_108 ?v_103)) (or ?v_110 ?v_103)) (or ?v_111 AT0_PROC3_A)) (or ?v_111 AT0_PROC3_TAU)) (or ?v_111 AT1_PROC3_B)) (or ?v_111 ?v_74)) (or ?v_112 AT0_PROC3_B)) (or ?v_112 AT0_PROC3_TAU)) (or ?v_112 AT1_PROC3_C)) (or ?v_112 ?v_113)) (or ?v_112 ?v_74)) (or ?v_114 AT0_PROC3_C)) (or ?v_114 AT0_PROC3_TAU)) (or ?v_114 AT1_PROC3_B)) (or ?v_114 ?v_74)) (or ?v_115 AT0_PROC3_C)) (or ?v_115 AT0_PROC3_TAU)) (or ?v_115 AT1_PROC3_CS)) (or ?v_115 (> ?v_116 10))) (or ?v_115 ?v_158)) (or ?v_117 AT0_PROC3_CS)) (or ?v_117 AT0_PROC3_TAU)) (or ?v_117 AT1_PROC3_A)) (or ?v_117 ?v_74)) (or ?v_111 ?v_103)) (or ?v_112 ?v_103)) (or ?v_114 ?v_103)) (or ?v_115 ?v_103)) (or ?v_117 ?v_103)) (or ?v_118 AT0_PROC4_A)) (or ?v_118 AT0_PROC4_TAU)) (or ?v_118 AT1_PROC4_B)) (or ?v_118 ?v_78)) (or ?v_119 AT0_PROC4_B)) (or ?v_119 AT0_PROC4_TAU)) (or ?v_119 AT1_PROC4_C)) (or ?v_119 ?v_120)) (or ?v_119 ?v_78)) (or ?v_121 AT0_PROC4_C)) (or ?v_121 AT0_PROC4_TAU)) (or ?v_121 AT1_PROC4_B)) (or ?v_121 ?v_78)) (or ?v_122 AT0_PROC4_C)) (or ?v_122 AT0_PROC4_TAU)) (or ?v_122 AT1_PROC4_CS)) (or ?v_122 (> ?v_123 10))) (or ?v_122 ?v_160)) (or ?v_124 AT0_PROC4_CS)) (or ?v_124 AT0_PROC4_TAU)) (or ?v_124 AT1_PROC4_A)) (or ?v_124 ?v_78)) (or ?v_118 ?v_103)) (or ?v_119 ?v_103)) (or ?v_121 ?v_103)) (or ?v_122 ?v_103)) (or ?v_124 ?v_103)) (or ?v_125 AT0_PROC5_A)) (or ?v_125 AT0_PROC5_TAU)) (or ?v_125 AT1_PROC5_B)) (or ?v_125 ?v_82)) (or ?v_126 AT0_PROC5_B)) (or ?v_126 AT0_PROC5_TAU)) (or ?v_126 AT1_PROC5_C)) (or ?v_126 ?v_127)) (or ?v_126 ?v_82)) (or ?v_128 AT0_PROC5_C)) (or ?v_128 AT0_PROC5_TAU)) (or ?v_128 AT1_PROC5_B)) (or ?v_128 ?v_82)) (or ?v_129 AT0_PROC5_C)) (or ?v_129 AT0_PROC5_TAU)) (or ?v_129 AT1_PROC5_CS)) (or ?v_129 (> ?v_130 10))) (or ?v_129 ?v_162)) (or ?v_131 AT0_PROC5_CS)) (or ?v_131 AT0_PROC5_TAU)) (or ?v_131 AT1_PROC5_A)) (or ?v_131 ?v_82)) (or ?v_125 ?v_103)) (or ?v_126 ?v_103)) (or ?v_128 ?v_103)) (or ?v_129 ?v_103)) (or ?v_131 ?v_103)) (or ?v_132 AT0_PROC6_A)) (or ?v_132 AT0_PROC6_TAU)) (or ?v_132 AT1_PROC6_B)) (or ?v_132 ?v_86)) (or ?v_133 AT0_PROC6_B)) (or ?v_133 AT0_PROC6_TAU)) (or ?v_133 AT1_PROC6_C)) (or ?v_133 ?v_134)) (or ?v_133 ?v_86)) (or ?v_135 AT0_PROC6_C)) (or ?v_135 AT0_PROC6_TAU)) (or ?v_135 AT1_PROC6_B)) (or ?v_135 ?v_86)) (or ?v_136 AT0_PROC6_C)) (or ?v_136 AT0_PROC6_TAU)) (or ?v_136 AT1_PROC6_CS)) (or ?v_136 (> ?v_137 10))) (or ?v_136 ?v_164)) (or ?v_138 AT0_PROC6_CS)) (or ?v_138 AT0_PROC6_TAU)) (or ?v_138 AT1_PROC6_A)) (or ?v_138 ?v_86)) (or ?v_132 ?v_103)) (or ?v_133 ?v_103)) (or ?v_135 ?v_103)) (or ?v_136 ?v_103)) (or ?v_138 ?v_103)) (or ?v_139 AT0_PROC7_A)) (or ?v_139 AT0_PROC7_TAU)) (or ?v_139 AT1_PROC7_B)) (or ?v_139 ?v_90)) (or ?v_140 AT0_PROC7_B)) (or ?v_140 AT0_PROC7_TAU)) (or ?v_140 AT1_PROC7_C)) (or ?v_140 ?v_141)) (or ?v_140 ?v_90)) (or ?v_142 AT0_PROC7_C)) (or ?v_142 AT0_PROC7_TAU)) (or ?v_142 AT1_PROC7_B)) (or ?v_142 ?v_90)) (or ?v_143 AT0_PROC7_C)) (or ?v_143 AT0_PROC7_TAU)) (or ?v_143 AT1_PROC7_CS)) (or ?v_143 (> ?v_144 10))) (or ?v_143 ?v_166)) (or ?v_145 AT0_PROC7_CS)) (or ?v_145 AT0_PROC7_TAU)) (or ?v_145 AT1_PROC7_A)) (or ?v_145 ?v_90)) (or ?v_139 ?v_103)) (or ?v_140 ?v_103)) (or ?v_142 ?v_103)) (or ?v_143 ?v_103)) (or ?v_145 ?v_103)) (or ?v_146 AT0_PROC8_A)) (or ?v_146 AT0_PROC8_TAU)) (or ?v_146 AT1_PROC8_B)) (or ?v_146 ?v_94)) (or ?v_147 AT0_PROC8_B)) (or ?v_147 AT0_PROC8_TAU)) (or ?v_147 AT1_PROC8_C)) (or ?v_147 ?v_148)) (or ?v_147 ?v_94)) (or ?v_149 AT0_PROC8_C)) (or ?v_149 AT0_PROC8_TAU)) (or ?v_149 AT1_PROC8_B)) (or ?v_149 ?v_94)) (or ?v_150 AT0_PROC8_C)) (or ?v_150 AT0_PROC8_TAU)) (or ?v_150 AT1_PROC8_CS)) (or ?v_150 (> ?v_151 10))) (or ?v_150 ?v_168)) (or ?v_152 AT0_PROC8_CS)) (or ?v_152 AT0_PROC8_TAU)) (or ?v_152 AT1_PROC8_A)) (or ?v_152 ?v_94)) (or ?v_146 ?v_103)) (or ?v_147 ?v_103)) (or ?v_149 ?v_103)) (or ?v_150 ?v_103)) (or ?v_152 ?v_103)) (or (or ?v_153 ?v_0) AT1_PROC1_A)) (or (or ?v_153 AT0_PROC1_A) ?v_4)) (or (or ?v_153 ?v_1) AT1_PROC1_B)) (or (or ?v_153 AT0_PROC1_B) ?v_5)) (or (or ?v_153 ?v_2) AT1_PROC1_C)) (or (or ?v_153 AT0_PROC1_C) ?v_6)) (or (or ?v_153 ?v_3) AT1_PROC1_CS)) (or (or ?v_153 AT0_PROC1_CS) ?v_7)) (or ?v_153 ?v_170)) (or ?v_153 ?v_154)) (or ?v_153 ?v_103)) (or (or ?v_155 ?v_8) AT1_PROC2_A)) (or (or ?v_155 AT0_PROC2_A) ?v_12)) (or (or ?v_155 ?v_9) AT1_PROC2_B)) (or (or ?v_155 AT0_PROC2_B) ?v_13)) (or (or ?v_155 ?v_10) AT1_PROC2_C)) (or (or ?v_155 AT0_PROC2_C) ?v_14)) (or (or ?v_155 ?v_11) AT1_PROC2_CS)) (or (or ?v_155 AT0_PROC2_CS) ?v_15)) (or ?v_155 ?v_171)) (or ?v_155 ?v_156)) (or ?v_155 ?v_103)) (or (or ?v_157 ?v_16) AT1_PROC3_A)) (or (or ?v_157 AT0_PROC3_A) ?v_20)) (or (or ?v_157 ?v_17) AT1_PROC3_B)) (or (or ?v_157 AT0_PROC3_B) ?v_21)) (or (or ?v_157 ?v_18) AT1_PROC3_C)) (or (or ?v_157 AT0_PROC3_C) ?v_22)) (or (or ?v_157 ?v_19) AT1_PROC3_CS)) (or (or ?v_157 AT0_PROC3_CS) ?v_23)) (or ?v_157 ?v_173)) (or ?v_157 ?v_158)) (or ?v_157 ?v_103)) (or (or ?v_159 ?v_24) AT1_PROC4_A)) (or (or ?v_159 AT0_PROC4_A) ?v_28)) (or (or ?v_159 ?v_25) AT1_PROC4_B)) (or (or ?v_159 AT0_PROC4_B) ?v_29)) (or (or ?v_159 ?v_26) AT1_PROC4_C)) (or (or ?v_159 AT0_PROC4_C) ?v_30)) (or (or ?v_159 ?v_27) AT1_PROC4_CS)) (or (or ?v_159 AT0_PROC4_CS) ?v_31)) (or ?v_159 ?v_174)) (or ?v_159 ?v_160)) (or ?v_159 ?v_103)) (or (or ?v_161 ?v_32) AT1_PROC5_A)) (or (or ?v_161 AT0_PROC5_A) ?v_36)) (or (or ?v_161 ?v_33) AT1_PROC5_B)) (or (or ?v_161 AT0_PROC5_B) ?v_37)) (or (or ?v_161 ?v_34) AT1_PROC5_C)) (or (or ?v_161 AT0_PROC5_C) ?v_38)) (or (or ?v_161 ?v_35) AT1_PROC5_CS)) (or (or ?v_161 AT0_PROC5_CS) ?v_39)) (or ?v_161 ?v_175)) (or ?v_161 ?v_162)) (or ?v_161 ?v_103)) (or (or ?v_163 ?v_40) AT1_PROC6_A)) (or (or ?v_163 AT0_PROC6_A) ?v_44)) (or (or ?v_163 ?v_41) AT1_PROC6_B)) (or (or ?v_163 AT0_PROC6_B) ?v_45)) (or (or ?v_163 ?v_42) AT1_PROC6_C)) (or (or ?v_163 AT0_PROC6_C) ?v_46)) (or (or ?v_163 ?v_43) AT1_PROC6_CS)) (or (or ?v_163 AT0_PROC6_CS) ?v_47)) (or ?v_163 ?v_176)) (or ?v_163 ?v_164)) (or ?v_163 ?v_103)) (or (or ?v_165 ?v_48) AT1_PROC7_A)) (or (or ?v_165 AT0_PROC7_A) ?v_52)) (or (or ?v_165 ?v_49) AT1_PROC7_B)) (or (or ?v_165 AT0_PROC7_B) ?v_53)) (or (or ?v_165 ?v_50) AT1_PROC7_C)) (or (or ?v_165 AT0_PROC7_C) ?v_54)) (or (or ?v_165 ?v_51) AT1_PROC7_CS)) (or (or ?v_165 AT0_PROC7_CS) ?v_55)) (or ?v_165 ?v_177)) (or ?v_165 ?v_166)) (or ?v_165 ?v_103)) (or (or ?v_167 ?v_56) AT1_PROC8_A)) (or (or ?v_167 AT0_PROC8_A) ?v_60)) (or (or ?v_167 ?v_57) AT1_PROC8_B)) (or (or ?v_167 AT0_PROC8_B) ?v_61)) (or (or ?v_167 ?v_58) AT1_PROC8_C)) (or (or ?v_167 AT0_PROC8_C) ?v_62)) (or (or ?v_167 ?v_59) AT1_PROC8_CS)) (or (or ?v_167 AT0_PROC8_CS) ?v_63)) (or ?v_167 ?v_178)) (or ?v_167 ?v_168)) (or ?v_167 ?v_103)) (or (or ?v_169 ?v_0) AT1_PROC1_A)) (or (or ?v_169 AT0_PROC1_A) ?v_4)) (or (or ?v_169 ?v_1) AT1_PROC1_B)) (or (or ?v_169 AT0_PROC1_B) ?v_5)) (or (or ?v_169 ?v_2) AT1_PROC1_C)) (or (or ?v_169 AT0_PROC1_C) ?v_6)) (or (or ?v_169 ?v_3) AT1_PROC1_CS)) (or (or ?v_169 AT0_PROC1_CS) ?v_7)) (or ?v_169 ?v_154)) (or ?v_169 ?v_170)) ?v_172) (or (or ?v_169 ?v_8) AT1_PROC2_A)) (or (or ?v_169 AT0_PROC2_A) ?v_12)) (or (or ?v_169 ?v_9) AT1_PROC2_B)) (or (or ?v_169 AT0_PROC2_B) ?v_13)) (or (or ?v_169 ?v_10) AT1_PROC2_C)) (or (or ?v_169 AT0_PROC2_C) ?v_14)) (or (or ?v_169 ?v_11) AT1_PROC2_CS)) (or (or ?v_169 AT0_PROC2_CS) ?v_15)) (or ?v_169 ?v_156)) (or ?v_169 ?v_171)) ?v_172) (or (or ?v_169 ?v_16) AT1_PROC3_A)) (or (or ?v_169 AT0_PROC3_A) ?v_20)) (or (or ?v_169 ?v_17) AT1_PROC3_B)) (or (or ?v_169 AT0_PROC3_B) ?v_21)) (or (or ?v_169 ?v_18) AT1_PROC3_C)) (or (or ?v_169 AT0_PROC3_C) ?v_22)) (or (or ?v_169 ?v_19) AT1_PROC3_CS)) (or (or ?v_169 AT0_PROC3_CS) ?v_23)) (or ?v_169 ?v_158)) (or ?v_169 ?v_173)) ?v_172) (or (or ?v_169 ?v_24) AT1_PROC4_A)) (or (or ?v_169 AT0_PROC4_A) ?v_28)) (or (or ?v_169 ?v_25) AT1_PROC4_B)) (or (or ?v_169 AT0_PROC4_B) ?v_29)) (or (or ?v_169 ?v_26) AT1_PROC4_C)) (or (or ?v_169 AT0_PROC4_C) ?v_30)) (or (or ?v_169 ?v_27) AT1_PROC4_CS)) (or (or ?v_169 AT0_PROC4_CS) ?v_31)) (or ?v_169 ?v_160)) (or ?v_169 ?v_174)) ?v_172) (or (or ?v_169 ?v_32) AT1_PROC5_A)) (or (or ?v_169 AT0_PROC5_A) ?v_36)) (or (or ?v_169 ?v_33) AT1_PROC5_B)) (or (or ?v_169 AT0_PROC5_B) ?v_37)) (or (or ?v_169 ?v_34) AT1_PROC5_C)) (or (or ?v_169 AT0_PROC5_C) ?v_38)) (or (or ?v_169 ?v_35) AT1_PROC5_CS)) (or (or ?v_169 AT0_PROC5_CS) ?v_39)) (or ?v_169 ?v_162)) (or ?v_169 ?v_175)) ?v_172) (or (or ?v_169 ?v_40) AT1_PROC6_A)) (or (or ?v_169 AT0_PROC6_A) ?v_44)) (or (or ?v_169 ?v_41) AT1_PROC6_B)) (or (or ?v_169 AT0_PROC6_B) ?v_45)) (or (or ?v_169 ?v_42) AT1_PROC6_C)) (or (or ?v_169 AT0_PROC6_C) ?v_46)) (or (or ?v_169 ?v_43) AT1_PROC6_CS)) (or (or ?v_169 AT0_PROC6_CS) ?v_47)) (or ?v_169 ?v_164)) (or ?v_169 ?v_176)) ?v_172) (or (or ?v_169 ?v_48) AT1_PROC7_A)) (or (or ?v_169 AT0_PROC7_A) ?v_52)) (or (or ?v_169 ?v_49) AT1_PROC7_B)) (or (or ?v_169 AT0_PROC7_B) ?v_53)) (or (or ?v_169 ?v_50) AT1_PROC7_C)) (or (or ?v_169 AT0_PROC7_C) ?v_54)) (or (or ?v_169 ?v_51) AT1_PROC7_CS)) (or (or ?v_169 AT0_PROC7_CS) ?v_55)) (or ?v_169 ?v_166)) (or ?v_169 ?v_177)) ?v_172) (or (or ?v_169 ?v_56) AT1_PROC8_A)) (or (or ?v_169 AT0_PROC8_A) ?v_60)) (or (or ?v_169 ?v_57) AT1_PROC8_B)) (or (or ?v_169 AT0_PROC8_B) ?v_61)) (or (or ?v_169 ?v_58) AT1_PROC8_C)) (or (or ?v_169 AT0_PROC8_C) ?v_62)) (or (or ?v_169 ?v_59) AT1_PROC8_CS)) (or (or ?v_169 AT0_PROC8_CS) ?v_63)) (or ?v_169 ?v_168)) (or ?v_169 ?v_178)) ?v_172) (or ?v_154 ?v_179)) (or ?v_188 (not ?v_179))) (or ?v_156 ?v_180)) (or ?v_194 (not ?v_180))) (or ?v_158 ?v_181)) (or ?v_198 (not ?v_181))) (or ?v_160 ?v_182)) (or ?v_202 (not ?v_182))) (or ?v_162 ?v_183)) (or ?v_206 (not ?v_183))) (or ?v_164 ?v_184)) (or ?v_210 (not ?v_184))) (or ?v_166 ?v_185)) (or ?v_214 (not ?v_185))) (or ?v_168 ?v_186)) (or ?v_218 (not ?v_186))) (or ?v_103 ?v_187)) (or ?v_189 ?v_193)) (or (or (or ?v_64 ?v_188) ?v_189) ?v_190)) (or (or (or ?v_191 ?v_154) ?v_189) ?v_190)) (or (or ?v_192 ?v_103) ?v_190)) (or (or ?v_192 ?v_189) ?v_66)) (or (or (or (not (< AT0_Z AT0_PROC1_X)) ?v_188) ?v_193) (< AT1_Z AT1_PROC1_X))) (or (or (or ?v_68 ?v_194) ?v_189) ?v_195)) (or (or (or ?v_196 ?v_156) ?v_189) ?v_195)) (or (or ?v_197 ?v_103) ?v_195)) (or (or ?v_197 ?v_189) ?v_70)) (or (or (or (not (< AT0_Z AT0_PROC2_X)) ?v_194) ?v_193) (< AT1_Z AT1_PROC2_X))) (or (or (or ?v_72 ?v_198) ?v_189) ?v_199)) (or (or (or ?v_200 ?v_158) ?v_189) ?v_199)) (or (or ?v_201 ?v_103) ?v_199)) (or (or ?v_201 ?v_189) ?v_74)) (or (or (or (not (< AT0_Z AT0_PROC3_X)) ?v_198) ?v_193) (< AT1_Z AT1_PROC3_X))) (or (or (or ?v_76 ?v_202) ?v_189) ?v_203)) (or (or (or ?v_204 ?v_160) ?v_189) ?v_203)) (or (or ?v_205 ?v_103) ?v_203)) (or (or ?v_205 ?v_189) ?v_78)) (or (or (or (not (< AT0_Z AT0_PROC4_X)) ?v_202) ?v_193) (< AT1_Z AT1_PROC4_X))) (or (or (or ?v_80 ?v_206) ?v_189) ?v_207)) (or (or (or ?v_208 ?v_162) ?v_189) ?v_207)) (or (or ?v_209 ?v_103) ?v_207)) (or (or ?v_209 ?v_189) ?v_82)) (or (or (or (not (< AT0_Z AT0_PROC5_X)) ?v_206) ?v_193) (< AT1_Z AT1_PROC5_X))) (or (or (or ?v_84 ?v_210) ?v_189) ?v_211)) (or (or (or ?v_212 ?v_164) ?v_189) ?v_211)) (or (or ?v_213 ?v_103) ?v_211)) (or (or ?v_213 ?v_189) ?v_86)) (or (or (or (not (< AT0_Z AT0_PROC6_X)) ?v_210) ?v_193) (< AT1_Z AT1_PROC6_X))) (or (or (or ?v_88 ?v_214) ?v_189) ?v_215)) (or (or (or ?v_216 ?v_166) ?v_189) ?v_215)) (or (or ?v_217 ?v_103) ?v_215)) (or (or ?v_217 ?v_189) ?v_90)) (or (or (or (not (< AT0_Z AT0_PROC7_X)) ?v_214) ?v_193) (< AT1_Z AT1_PROC7_X))) (or (or (or ?v_92 ?v_218) ?v_189) ?v_219)) (or (or (or ?v_220 ?v_168) ?v_189) ?v_219)) (or (or ?v_221 ?v_103) ?v_219)) (or (or ?v_221 ?v_189) ?v_94)) (or (or (or (not (< AT0_Z AT0_PROC8_X)) ?v_218) ?v_193) (< AT1_Z AT1_PROC8_X))) AT0_PROC1_A) AT0_PROC2_A) AT0_PROC3_A) AT0_PROC4_A) AT0_PROC5_A) AT0_PROC6_A) AT0_PROC7_A) AT0_PROC8_A) ?v_64) ?v_68) ?v_72) ?v_76) ?v_80) ?v_84) ?v_88) ?v_92) AT0_ID0) (or (or (or (or (or (or (or ?v_153 ?v_155) ?v_157) ?v_159) ?v_161) ?v_163) ?v_165) ?v_167)) (or ?v_222 ?v_223)) (or ?v_222 ?v_224)) (or ?v_222 ?v_225)) (or ?v_222 ?v_226)) (or ?v_222 ?v_227)) (or ?v_222 ?v_228)) (or ?v_222 ?v_229)) (or ?v_222 ?v_230)) (or ?v_223 ?v_224)) (or ?v_223 ?v_225)) (or ?v_223 ?v_226)) (or ?v_223 ?v_227)) (or ?v_223 ?v_228)) (or ?v_223 ?v_229)) (or ?v_223 ?v_230)) (or ?v_224 ?v_225)) (or ?v_224 ?v_226)) (or ?v_224 ?v_227)) (or ?v_224 ?v_228)) (or ?v_224 ?v_229)) (or ?v_224 ?v_230)) (or ?v_225 ?v_226)) (or ?v_225 ?v_227)) (or ?v_225 ?v_228)) (or ?v_225 ?v_229)) (or ?v_225 ?v_230)) (or ?v_226 ?v_227)) (or ?v_226 ?v_228)) (or ?v_226 ?v_229)) (or ?v_226 ?v_230)) (or ?v_227 ?v_228)) (or ?v_227 ?v_229)) (or ?v_227 ?v_230)) (or ?v_228 ?v_229)) (or ?v_228 ?v_230)) (or ?v_229 ?v_230)) (or ?v_231 ?v_232)) (or ?v_231 ?v_233)) (or ?v_231 ?v_234)) (or ?v_231 ?v_235)) (or ?v_231 ?v_236)) (or ?v_231 ?v_237)) (or ?v_231 ?v_238)) (or ?v_231 ?v_239)) (or ?v_232 ?v_233)) (or ?v_232 ?v_234)) (or ?v_232 ?v_235)) (or ?v_232 ?v_236)) (or ?v_232 ?v_237)) (or ?v_232 ?v_238)) (or ?v_232 ?v_239)) (or ?v_233 ?v_234)) (or ?v_233 ?v_235)) (or ?v_233 ?v_236)) (or ?v_233 ?v_237)) (or ?v_233 ?v_238)) (or ?v_233 ?v_239)) (or ?v_234 ?v_235)) (or ?v_234 ?v_236)) (or ?v_234 ?v_237)) (or ?v_234 ?v_238)) (or ?v_234 ?v_239)) (or ?v_235 ?v_236)) (or ?v_235 ?v_237)) (or ?v_235 ?v_238)) (or ?v_235 ?v_239)) (or ?v_236 ?v_237)) (or ?v_236 ?v_238)) (or ?v_236 ?v_239)) (or ?v_237 ?v_238)) (or ?v_237 ?v_239)) (or ?v_238 ?v_239)) (or ?v_96 AT0_ID0)) (or ?v_96 AT1_ID0)) (or ?v_97 AT1_ID1)) (or ?v_99 AT0_ID0)) (or ?v_99 AT1_ID0)) (or ?v_100 AT0_ID1)) (or ?v_100 AT1_ID1)) (or ?v_102 AT1_ID0)) (or (or ?v_169 ?v_223) AT1_ID1)) (or ?v_104 AT0_ID0)) (or ?v_104 AT1_ID0)) (or ?v_105 AT1_ID2)) (or ?v_107 AT0_ID0)) (or ?v_107 AT1_ID0)) (or ?v_108 AT0_ID2)) (or ?v_108 AT1_ID2)) (or ?v_110 AT1_ID0)) (or (or ?v_169 ?v_224) AT1_ID2)) (or ?v_111 AT0_ID0)) (or ?v_111 AT1_ID0)) (or ?v_112 AT1_ID3)) (or ?v_114 AT0_ID0)) (or ?v_114 AT1_ID0)) (or ?v_115 AT0_ID3)) (or ?v_115 AT1_ID3)) (or ?v_117 AT1_ID0)) (or (or ?v_169 ?v_225) AT1_ID3)) (or ?v_118 AT0_ID0)) (or ?v_118 AT1_ID0)) (or ?v_119 AT1_ID4)) (or ?v_121 AT0_ID0)) (or ?v_121 AT1_ID0)) (or ?v_122 AT0_ID4)) (or ?v_122 AT1_ID4)) (or ?v_124 AT1_ID0)) (or (or ?v_169 ?v_226) AT1_ID4)) (or ?v_125 AT0_ID0)) (or ?v_125 AT1_ID0)) (or ?v_126 AT1_ID5)) (or ?v_128 AT0_ID0)) (or ?v_128 AT1_ID0)) (or ?v_129 AT0_ID5)) (or ?v_129 AT1_ID5)) (or ?v_131 AT1_ID0)) (or (or ?v_169 ?v_227) AT1_ID5)) (or ?v_132 AT0_ID0)) (or ?v_132 AT1_ID0)) (or ?v_133 AT1_ID6)) (or ?v_135 AT0_ID0)) (or ?v_135 AT1_ID0)) (or ?v_136 AT0_ID6)) (or ?v_136 AT1_ID6)) (or ?v_138 AT1_ID0)) (or (or ?v_169 ?v_228) AT1_ID6)) (or ?v_139 AT0_ID0)) (or ?v_139 AT1_ID0)) (or ?v_140 AT1_ID7)) (or ?v_142 AT0_ID0)) (or ?v_142 AT1_ID0)) (or ?v_143 AT0_ID7)) (or ?v_143 AT1_ID7)) (or ?v_145 AT1_ID0)) (or (or ?v_169 ?v_229) AT1_ID7)) (or ?v_146 AT0_ID0)) (or ?v_146 AT1_ID0)) (or ?v_147 AT1_ID8)) (or ?v_149 AT0_ID0)) (or ?v_149 AT1_ID0)) (or ?v_150 AT0_ID8)) (or ?v_150 AT1_ID8)) (or ?v_152 AT1_ID0)) (or (or ?v_169 ?v_230) AT1_ID8)) (or (or ?v_169 ?v_222) AT1_ID0)) (or ?v_4 AT1_PROC1_A)) (or AT1_PROC1_A ?v_4)) (or ?v_5 AT1_PROC1_B)) (or AT1_PROC1_B ?v_5)) (or ?v_6 AT1_PROC1_C)) (or AT1_PROC1_C ?v_6)) (or ?v_7 AT1_PROC1_CS)) (or AT1_PROC1_CS ?v_7)) (or ?v_232 AT1_ID1)) (or AT1_ID1 ?v_232)) (= ?v_240 ?v_240)) (or ?v_12 AT1_PROC2_A)) (or AT1_PROC2_A ?v_12)) (or ?v_13 AT1_PROC2_B)) (or AT1_PROC2_B ?v_13)) (or ?v_14 AT1_PROC2_C)) (or AT1_PROC2_C ?v_14)) (or ?v_15 AT1_PROC2_CS)) (or AT1_PROC2_CS ?v_15)) (or ?v_233 AT1_ID2)) (or AT1_ID2 ?v_233)) (= ?v_241 ?v_241)) (or ?v_20 AT1_PROC3_A)) (or AT1_PROC3_A ?v_20)) (or ?v_21 AT1_PROC3_B)) (or AT1_PROC3_B ?v_21)) (or ?v_22 AT1_PROC3_C)) (or AT1_PROC3_C ?v_22)) (or ?v_23 AT1_PROC3_CS)) (or AT1_PROC3_CS ?v_23)) (or ?v_234 AT1_ID3)) (or AT1_ID3 ?v_234)) (= ?v_242 ?v_242)) (or ?v_28 AT1_PROC4_A)) (or AT1_PROC4_A ?v_28)) (or ?v_29 AT1_PROC4_B)) (or AT1_PROC4_B ?v_29)) (or ?v_30 AT1_PROC4_C)) (or AT1_PROC4_C ?v_30)) (or ?v_31 AT1_PROC4_CS)) (or AT1_PROC4_CS ?v_31)) (or ?v_235 AT1_ID4)) (or AT1_ID4 ?v_235)) (= ?v_243 ?v_243)) (or ?v_36 AT1_PROC5_A)) (or AT1_PROC5_A ?v_36)) (or ?v_37 AT1_PROC5_B)) (or AT1_PROC5_B ?v_37)) (or ?v_38 AT1_PROC5_C)) (or AT1_PROC5_C ?v_38)) (or ?v_39 AT1_PROC5_CS)) (or AT1_PROC5_CS ?v_39)) (or ?v_236 AT1_ID5)) (or AT1_ID5 ?v_236)) (= ?v_244 ?v_244)) (or ?v_44 AT1_PROC6_A)) (or AT1_PROC6_A ?v_44)) (or ?v_45 AT1_PROC6_B)) (or AT1_PROC6_B ?v_45)) (or ?v_46 AT1_PROC6_C)) (or AT1_PROC6_C ?v_46)) (or ?v_47 AT1_PROC6_CS)) (or AT1_PROC6_CS ?v_47)) (or ?v_237 AT1_ID6)) (or AT1_ID6 ?v_237)) (= ?v_245 ?v_245)) (or ?v_52 AT1_PROC7_A)) (or AT1_PROC7_A ?v_52)) (or ?v_53 AT1_PROC7_B)) (or AT1_PROC7_B ?v_53)) (or ?v_54 AT1_PROC7_C)) (or AT1_PROC7_C ?v_54)) (or ?v_55 AT1_PROC7_CS)) (or AT1_PROC7_CS ?v_55)) (or ?v_238 AT1_ID7)) (or AT1_ID7 ?v_238)) (= ?v_246 ?v_246)) (or ?v_60 AT1_PROC8_A)) (or AT1_PROC8_A ?v_60)) (or ?v_61 AT1_PROC8_B)) (or AT1_PROC8_B ?v_61)) (or ?v_62 AT1_PROC8_C)) (or AT1_PROC8_C ?v_62)) (or ?v_63 AT1_PROC8_CS)) (or AT1_PROC8_CS ?v_63)) (or ?v_239 AT1_ID8)) (or AT1_ID8 ?v_239)) (= ?v_247 ?v_247)) AT1_PROC1_B) ?v_7)))))))))))))))))))))))))))))
(check-sat)
(exit)
